Instance name : RC201
Authors : bauke
Date :    21-05-13
Reference : N/A
Solution
Route 1 : 42 36 39 72 45 5 2 98 88 61 44 40 38 41 81 94 50 34 32 26 89 48 24 25 77 58
Route 2 : 65 14 47 59 75 16 15 11 12 73 78 79 7 6 8 46 3 4 1 55 68
Route 3 : 69 82 52 83 64 19 23 21 18 76 85 84 51 49 22 20 66 56 96 54 37 43 35 93 91 80
Route 4 : 92 95 63 33 28 27 29 31 30 62 67 71 90 99 57 86 87 9 53 10 97 74 13 17 60 100 70

